\ Model Iterative Bi-level 3
\ LP format - for model browsing. Use MPS format to capture full model detail.
Maximize
  x + 24 Constant
Subject To
 c_1: 2 x >= 24
 c_2: x <= 2
Bounds
 Constant = 1
End
